# avogadro generated ORCA input file 
# Basic Mode
# 
! B3LYP OPT def2-SVP FREQ


* xyz 0 1
C     -5.364055    2.875668   -0.129532
Cl    -6.822606    3.859230    0.039929
H     -4.618308    3.439909   -0.694973
Cl    -4.691627    2.455481    1.449834
H     -5.614904    1.956878   -0.665242
*
