! B3LYP OPT def2-SVP NUMFREQ
%ELPROP
   POLAR 1
END 

* xyzfile 0 1 CH2Cl2.xyz

