# avogadro generated ORCA input file 
# Basic Mode
# 
! B3LYP OPT def2-SVP FREQ


* xyz 0 1
C     -6.070619    2.534352   -0.000002
H     -5.254035    2.280829    0.679565
H     -5.741311    3.314501   -0.689757
H     -6.361840    1.646965   -0.566271
H     -6.925285    2.895031    0.576481
*

