# avogadro generated ORCA input file 
# Basic Mode
# 
! B3LYP OPT def2-SVP FREQ


* xyz 0 1
C     -6.125982    1.026865    0.000009
C     -4.792267    0.859173    0.000018
Cl    -6.872817    2.594464    0.075547
Cl    -7.237605   -0.307169   -0.075546
Cl    -3.680679    2.193169    0.075570
Cl    -4.045447   -0.708454   -0.075521
*

