# avogadro generated ORCA input file 
# Basic Mode
# 
! B3LYP OPT def2-SVP FREQ


* xyz 0 1
C     -5.307469    2.839991   -0.013679
Cl    -6.765354    3.823162    0.159934
H     -4.561229    3.404367   -0.577136
H     -4.919196    2.598961    0.978311
H     -5.558253    1.920685   -0.547414
*

