# avogadro generated ORCA input file 
# Basic Mode
# 
! B3LYP OPT def2-SVP FREQ


* xyz 0 1
C     -8.793489    1.338425    0.097296
Br    -9.275789    2.985241   -0.793498
H     -8.951181    1.471804    1.168993
H     -9.431166    0.541927   -0.290198
Br    -6.950288    0.826285   -0.182637
*
