# avogadro generated ORCA input file 
# Basic Mode
# 
! B3LYP OPT def2-SVP FREQ


* xyz 0 1
C     -8.310265    3.477346    0.000004
Cl    -9.541434    4.763126    0.074390
Cl    -9.043147    1.924995    0.477137
Cl    -7.682558    3.351602   -1.662744
Cl    -6.973918    3.869655    1.111230
*

