# avogadro generated ORCA input file 
# Basic Mode
# 
! B3LYP OPT def2-SVP FREQ


* xyz 0 1
C     -5.449597    2.819765   -0.055988
Cl    -6.921212    3.790019    0.122710
Cl    -4.241217    3.691806   -1.014135
Cl    -4.792074    2.387499    1.531409
H     -5.707399    1.898077   -0.583980 M 2.0
*

